p tw 41 44
1 2
2 13
3 4
4 5
5 6
6 7
7 8
8 9
9 10
9 14
10 11
11 12
12 39
13 24
14 15
15 16
16 17
16 21
17 18
18 19
19 20
20 34
21 22
22 23
22 28
23 25
24 35
25 26
26 27
27 34
28 29
29 30
30 31
31 32
32 33
33 34
34 36
35 37
37 38
38 39
39 40
40 41
40 14
41 3
